TCS_Benchmarks/redos_fix/regexlib2_output_distinct_1179_1178_0_0.smt2
(set-logic QF_S)
(declare-const x String)
(assert (str.in.re x (re.inter (re.*  (re.++ (re.* (re.opt (re.opt  (re.union  (str.to.re "\u{2f}") (re.union  (str.to.re "\u{5b}") (re.union  (str.to.re "\u{5d}") (re.union  (str.to.re "\u{2d}") (re.union  (str.to.re "\u{7e}") (re.union  (str.to.re "\u{5f}") (re.union  (str.to.re "\u{2e}") (re.union  (str.to.re "\u{2c}") (re.union  (str.to.re "\u{3a}") (re.union  (str.to.re "\u{3d}") (re.union  (str.to.re "\u{7b}") (re.union  (str.to.re "\u{7d}") (re.union  (re.union (re.range "\u{30}" "\u{39}") (re.union (re.range "\u{41}" "\u{5a}") (re.range "\u{61}" "\u{7a}")))  (re.++  (str.to.re "\u{25}")  (re.++  (re.union (re.range "\u{41}" "\u{46}") (re.union (re.range "\u{61}" "\u{66}") (re.range "\u{30}" "\u{39}")))  (re.union (re.range "\u{41}" "\u{46}") (re.union (re.range "\u{61}" "\u{66}") (re.range "\u{30}" "\u{39}")))))))))))))))))) ) ) ) (re.opt  (str.to.re "\u{26}") )) ) (re.* (re.opt (re.opt  (re.union  (str.to.re "\u{2f}") (re.union  (str.to.re "\u{5b}") (re.union  (str.to.re "\u{5d}") (re.union  (str.to.re "\u{2d}") (re.union  (str.to.re "\u{7e}") (re.union  (str.to.re "\u{5f}") (re.union  (str.to.re "\u{2e}") (re.union  (str.to.re "\u{2c}") (re.union  (str.to.re "\u{3a}") (re.union  (str.to.re "\u{3d}") (re.union  (str.to.re "\u{7b}") (re.union  (str.to.re "\u{7d}") (re.union  (re.union (re.range "\u{30}" "\u{39}") (re.union (re.range "\u{41}" "\u{5a}") (re.range "\u{61}" "\u{7a}")))  (re.++  (str.to.re "\u{25}")  (re.++  (re.union (re.range "\u{41}" "\u{46}") (re.union (re.range "\u{61}" "\u{66}") (re.range "\u{30}" "\u{39}")))  (re.union (re.range "\u{41}" "\u{46}") (re.union (re.range "\u{61}" "\u{66}") (re.range "\u{30}" "\u{39}")))))))))))))))))) ) ) ) )))
(check-sat)
(get-model)