TCS_Benchmarks/redos_fix/regexlib2_output_distinct_1179_1178_0_0.txt
(((((\/|\[|\]|-|~|_|\.|,|:|=|\{|\}|[0-9A-Za-z]|%[A-Fa-f0-9]{2})?))??)*\&?)*
((((\/|\[|\]|-|~|_|\.|,|:|=|\{|\}|[0-9A-Za-z]|%[A-Fa-f0-9]{2})?))??)*